(declare-const x Int)
(declare-const x1 Bool)
(declare-fun v () String)
(declare-fun a () String)
(assert (forall ((v Int)) (or x1 (> v 0))))
(assert (distinct v "l" "" (str.substr a 0 (div 1 (* x x x)))))
(check-sat)
